p wcnf 140 167 168 
1 -135 73 0 
1 -105 71 0 
1 -33 -73 0 
1 -136 76 0 
1 107 -5 0 
1 -94 -58 0 
1 -115 -63 0 
1 -87 -91 0 
1 79 -60 0 
1 -11 31 0 
1 4 -99 0 
1 -30 -118 0 
1 -38 23 0 
1 -31 -95 0 
1 -57 -15 0 
1 112 -5 0 
1 49 14 0 
1 -98 -74 0 
1 -76 124 0 
1 -133 -78 0 
1 -125 -93 0 
1 -52 92 0 
1 109 75 0 
1 -56 73 0 
1 -23 -117 0 
1 -31 -39 0 
1 134 -137 0 
1 -7 -71 0 
1 -61 -4 0 
1 8 44 0 
1 113 24 0 
1 -81 126 0 
1 -75 -72 0 
1 112 139 0 
1 -61 -91 0 
1 -140 -60 0 
1 -17 118 0 
1 -130 104 0 
1 85 48 0 
1 -32 114 0 
1 -122 61 0 
1 78 -22 0 
1 95 -139 0 
1 50 -6 0 
1 59 133 0 
1 8 -38 0 
1 79 -104 0 
1 132 -30 0 
1 -37 -24 0 
1 13 -92 0 
1 -24 -49 0 
1 42 -17 0 
1 -33 -69 0 
1 10 86 0 
1 138 -89 0 
1 -40 -23 0 
1 25 -136 0 
1 133 100 0 
1 115 -140 0 
1 25 22 0 
1 55 -11 0 
1 10 -112 0 
1 18 1 0 
1 -58 10 0 
1 -117 77 0 
1 81 52 0 
1 -2 36 0 
1 -49 -95 0 
1 -56 -127 0 
1 15 -122 0 
1 -116 -65 0 
1 -140 112 0 
1 7 -116 0 
1 70 137 0 
1 -57 84 0 
1 101 125 0 
1 -73 -11 0 
1 -137 -26 0 
1 -42 63 0 
1 107 32 0 
1 -90 -99 0 
1 47 94 0 
1 89 124 0 
1 -1 -30 0 
1 -136 99 0 
1 78 120 0 
1 -115 140 0 
1 -7 -24 0 
1 78 126 0 
1 138 -40 0 
1 36 -73 0 
1 -63 -69 0 
1 -59 -93 0 
1 -67 82 0 
1 -86 -34 0 
1 97 -85 0 
1 -18 -19 0 
1 8 117 0 
1 104 57 0 
1 99 -64 0 
1 24 -40 0 
1 25 -34 0 
1 99 -69 0 
1 -132 -42 0 
1 77 -126 0 
1 109 -27 0 
1 71 -34 0 
1 -101 30 0 
1 52 35 0 
1 56 103 0 
1 -14 65 0 
1 5 83 0 
1 -1 138 0 
1 48 22 0 
1 27 140 0 
1 -106 76 0 
1 -91 -93 0 
1 -59 -68 0 
1 -124 129 0 
1 122 2 0 
1 -109 -76 0 
1 18 102 0 
1 -52 -88 0 
1 -92 -120 0 
1 118 -132 0 
1 107 -124 0 
1 -61 128 0 
1 93 59 0 
1 92 -77 0 
1 116 -44 0 
1 -74 40 0 
1 78 111 0 
1 110 -72 0 
1 72 61 0 
1 97 61 0 
1 91 -89 0 
1 -48 -2 0 
1 -38 -79 0 
1 -71 -62 0 
1 25 49 0 
1 -79 -62 0 
1 -17 -132 0 
1 129 24 0 
1 -74 -14 0 
1 123 -85 0 
1 137 69 0 
1 133 6 0 
1 80 132 0 
1 -120 -12 0 
1 99 128 0 
1 40 109 0 
1 -107 -117 0 
1 71 125 0 
1 50 135 0 
1 87 90 0 
1 -50 25 0 
1 92 76 0 
1 97 91 0 
1 100 79 0 
1 -58 48 0 
1 -122 -106 0 
1 63 74 0 
1 -106 -117 0 
1 -21 -50 0 
1 103 69 0 
1 92 102 0 
1 35 -99 0 
